NAME : dataset12.tour
TYPE : TOUR
DIMENSION : 12
SOLUTION : 1592.7775687005822
TOUR_SECTION
8,2,12,6,9,4,5,10,1,11,3,7,8
56.407887 - 8,2
51.38355 - 2,12
56.543343 - 12,6
125.34597 - 6,9
274.9493 - 9,4
195.67606 - 4,5
404.64624 - 5,10
126.10742 - 10,1
36.075226 - 1,11
83.367386 - 11,3
43.476597 - 3,7
69.39929 - 7,8
EOF